(set-info :smt-lib-version 2.6)
(set-logic QF_UFLRA)
(set-info :source |
MathSat group

|)
(set-info :category "random")
(set-info :status unsat)
(declare-fun x0 () Real)
(declare-fun x1 () Real)
(declare-fun x2 () Real)
(declare-fun x3 () Real)
(declare-fun x4 () Real)
(declare-fun x5 () Real)
(declare-fun x6 () Real)
(declare-fun x7 () Real)
(declare-fun x8 () Real)
(declare-fun x9 () Real)
(declare-fun x10 () Real)
(declare-fun x11 () Real)
(declare-fun x12 () Real)
(declare-fun x13 () Real)
(declare-fun x14 () Real)
(declare-fun x15 () Real)
(declare-fun x16 () Real)
(declare-fun x17 () Real)
(declare-fun x18 () Real)
(declare-fun x19 () Real)
(declare-fun x20 () Real)
(declare-fun x21 () Real)
(declare-fun x22 () Real)
(declare-fun x23 () Real)
(declare-fun x24 () Real)
(declare-fun x25 () Real)
(declare-fun x26 () Real)
(declare-fun x27 () Real)
(declare-fun x28 () Real)
(declare-fun x29 () Real)
(declare-fun f0_1 (Real) Real)
(declare-fun f0_2 (Real Real) Real)
(declare-fun f0_3 (Real Real Real) Real)
(declare-fun f0_4 (Real Real Real Real) Real)
(declare-fun P0 () Bool)
(declare-fun P1 () Bool)
(declare-fun P2 () Bool)
(declare-fun P3 () Bool)
(declare-fun P4 () Bool)
(declare-fun P5 () Bool)
(declare-fun P6 () Bool)
(declare-fun P7 () Bool)
(declare-fun P8 () Bool)
(declare-fun P9 () Bool)
(declare-fun P10 () Bool)
(declare-fun P11 () Bool)
(declare-fun P12 () Bool)
(declare-fun P13 () Bool)
(declare-fun P14 () Bool)
(declare-fun P15 () Bool)
(declare-fun P16 () Bool)
(declare-fun P17 () Bool)
(declare-fun P18 () Bool)
(declare-fun P19 () Bool)
(declare-fun P20 () Bool)
(declare-fun P21 () Bool)
(declare-fun P22 () Bool)
(declare-fun P23 () Bool)
(declare-fun P24 () Bool)
(declare-fun P25 () Bool)
(declare-fun P26 () Bool)
(declare-fun P27 () Bool)
(declare-fun P28 () Bool)
(declare-fun P29 () Bool)
(assert (let ((?v_10 (<= (- (+ (* 18 x12) (* 31 x15)) (* 23 x6)) 7)) (?v_133 (< (+ (- (* 3 x29) (* 31 x13)) (* 5 x12)) 17)) (?v_22 (* 38 x20)) (?v_6 (f0_1 x8)) (?v_11 (f0_1 x1))) (let ((?v_49 (distinct ?v_6 ?v_11)) (?v_44 (= x14 (f0_1 x11))) (?v_48 (distinct (f0_1 x19) (f0_2 x4 x27))) (?v_40 (distinct ?v_11 x14)) (?v_94 (= x16 x15)) (?v_34 (= (f0_1 x3) x11)) (?v_79 (f0_1 x9))) (let ((?v_102 (distinct ?v_79 x24)) (?v_57 (distinct ?v_6 (f0_2 x20 x18))) (?v_27 (= x10 (f0_2 x1 x23))) (?v_80 (distinct (f0_2 x13 x9) x1)) (?v_51 (distinct (f0_2 x14 x16) (f0_2 x4 x13))) (?v_24 (f0_1 x2))) (let ((?v_119 (= x14 ?v_24)) (?v_20 (distinct (f0_2 x20 x9) ?v_24)) (?v_2 (= (f0_2 x26 x19) (f0_2 x25 x24))) (?v_85 (distinct (f0_2 x0 x13) (f0_2 x26 x27))) (?v_92 (= (f0_1 x27) x9)) (?v_15 (f0_1 x22))) (let ((?v_32 (distinct ?v_15 (f0_2 x0 x8))) (?v_7 (= ?v_15 x6)) (?v_103 (= (f0_1 x29) x26)) (?v_74 (distinct (f0_2 x25 x2) (f0_2 x25 x18))) (?v_16 (f0_1 x16))) (let ((?v_42 (= (f0_1 x24) ?v_16)) (?v_82 (distinct x10 ?v_16)) (?v_76 (distinct x16 (f0_2 x1 x20))) (?v_23 (= (f0_2 x28 x3) (f0_1 x13))) (?v_118 (distinct (f0_1 x15) x27)) (?v_36 (distinct (f0_1 x25) (f0_1 x0))) (?v_52 (= x12 (f0_1 x6))) (?v_8 (= (f0_1 x7) x28)) (?v_1 (distinct x16 (f0_2 x29 x23))) (?v_78 (distinct ?v_79 (f0_2 x14 x15)))) (let ((?v_18 (not ?v_76)) (?v_156 (not P9)) (?v_3 (not ?v_10)) (?v_72 (not P22)) (?v_9 (not ?v_1)) (?v_4 (not ?v_36)) (?v_87 (not P10)) (?v_58 (not ?v_82)) (?v_127 (not P28)) (?v_5 (not ?v_2)) (?v_153 (not ?v_34)) (?v_116 (not P7)) (?v_41 (not P24)) (?v_95 (not P20)) (?v_45 (not ?v_49)) (?v_147 (not ?v_48)) (?v_71 (not P26)) (?v_19 (not ?v_7)) (?v_67 (not ?v_40)) (?v_21 (not P18)) (?v_122 (not ?v_8)) (?v_28 (not ?v_32)) (?v_31 (not ?v_20)) (?v_136 (not P16)) (?v_69 (not ?v_133)) (?v_105 (not P27)) (?v_99 (not P8)) (?v_146 (not ?v_119)) (?v_29 (not ?v_27)) (?v_89 (not P14)) (?v_97 (not ?v_92)) (?v_100 (not P15)) (?v_56 (not P2)) (?v_121 (not P19)) (?v_46 (not ?v_42)) (?v_65 (not ?v_44)) (?v_66 (not P6)) (?v_62 (not P0)) (?v_90 (not ?v_52)) (?v_83 (not P17)) (?v_81 (not P12)) (?v_128 (not P4)) (?v_91 (not P25)) (?v_115 (not P21)) (?v_117 (not ?v_74)) (?v_120 (not ?v_51)) (?v_104 (not P13)) (?v_112 (not ?v_23)) (?v_137 (not P29)) (?v_111 (not P3)) (?v_141 (not P23)) (?v_140 (not P1)) (?v_142 (not ?v_78)) (?v_124 (not ?v_85)) (?v_139 (not ?v_57)) (?v_135 (not P11)) (?v_155 (not ?v_80)) (?v_148 (not P5)) (?v_149 (not ?v_103)) (?v_154 (not ?v_94)) (?v_151 (or ?v_118 ?v_74)) (?v_157 (not ?v_118)) (?v_26 (<= (+ (- (* 20 x25) 0) (* 40 x13)) 3)) (?v_37 (<= (+ (* 6 x3) ?v_22) 23)) (?v_86 (distinct (+ (* 15 x16) (* 38 x11) (* 6 x29)) 13))) (let ((?v_53 (not ?v_86)) (?v_123 (< (+ (- (* 3 x1) (* 10 x16)) x17) 28))) (let ((?v_138 (not ?v_123)) (?v_109 (not ?v_26)) (?v_130 (<= (- (- (* 28 x2) (* 25 x1)) 0) 9)) (?v_107 (not ?v_37))) (let ((?v_144 (not ?v_130)) (?v_0 (< (- (- (* (- 25) x14) (* 8 x13)) (* 15 x8)) 22))) (let ((?v_43 (not ?v_0)) (?v_30 (< (+ (* 2 x29) (* 4 x5) (* 41 x21)) (- 13)))) (let ((?v_12 (not ?v_30)) (?v_35 (distinct (- (- (* (- 39) x2) (* 16 x2)) (* 17 x26)) (- 19)))) (let ((?v_88 (not ?v_35)) (?v_33 (< (- (* (- 14) x19) (* 36 x11)) 8)) (?v_54 (<= (+ (- (* 35 x27) (* 17 x29)) (* 3 x17)) (- 26))) (?v_77 (< (+ (* 34 x10) (* 25 x29) (* 7 x25)) (- 35)))) (let ((?v_13 (not ?v_77)) (?v_17 (< (- (+ (* (- 22) x7) (* 4 x16)) (* 42 x15)) 37))) (let ((?v_38 (not ?v_17)) (?v_96 (<= (+ (* 34 x28) (* 40 x2) (* 10 x5)) (- 3)))) (let ((?v_14 (not ?v_96)) (?v_60 (<= (+ (* 36 x25) (* 15 x21) (* 30 x3)) (- 9))) (?v_70 (< (- (- (* 24 x13) (* 37 x3)) (* 34 x17)) (- 33)))) (let ((?v_25 (not ?v_70)) (?v_50 (< (- (+ (* 27 x7) (* 2 x8)) (* 36 x27)) (- 17)))) (let ((?v_47 (not ?v_50)) (?v_98 (distinct (+ (- (* (- 12) x14) (* 4 x25)) (* 27 x29)) 38))) (let ((?v_113 (not ?v_98)) (?v_59 (<= (- (+ (* (- 4) x15) (* 12 x6)) (* 32 x3)) 43)) (?v_134 (< (- (- (* (- 29) x19) (* 8 x17)) (* 31 x22)) (- 4)))) (let ((?v_93 (not ?v_134)) (?v_61 (< (+ (- (* (- 26) x6) (* 9 x12)) ?v_22) 8))) (let ((?v_126 (not ?v_61)) (?v_152 (<= (+ (- (* 13 x15) (* 26 x11)) (* 16 x15)) (- 21)))) (let ((?v_64 (not ?v_152)) (?v_73 (< (- (+ (* (- 2) x10) (* 11 x29)) (* 34 x6)) 22)) (?v_63 (< (+ (- (* (- 12) x15) (* 14 x1)) (* 42 x27)) 42)) (?v_39 (< (- (+ (* (- 35) x14) (* 26 x25)) (* 20 x24)) (- 16)))) (let ((?v_125 (not ?v_39)) (?v_55 (<= (+ (- (* (- 10) x22) (* 16 x8)) (* 34 x7)) 41)) (?v_68 (<= (- (+ (* 3 x16) (* 18 x24)) (* 16 x14)) (- 41))) (?v_84 (not ?v_54)) (?v_108 (not ?v_33)) (?v_129 (not ?v_59)) (?v_132 (not ?v_60)) (?v_101 (not ?v_63))) (let ((?v_131 (not ?v_68)) (?v_110 (not ?v_73)) (?v_143 (= (+ (* (- 31) x6) (* 16 x20) (* 41 x2)) 44))) (let ((?v_106 (not ?v_143)) (?v_75 (<= (- (+ (* (- 34) x16) (* 28 x25)) (* 31 x18)) 1))) (let ((?v_150 (not ?v_75)) (?v_114 (not ?v_55)) (?v_145 (or ?v_108 P4))) (and (and (and (and (and (and (and (and (and (and (and (and (and (and (and (and (and (and (and (and (and (and (and (and (and (and (and (and (and (and (and (and (and (and (and (and (and (and (and (and (and (and (and (and (and (and (and (and (and (and (and (and (and (and (and (and (and (and (and (and (and (and (and (and (and (and (and (and (and (and (and (and (and (and (and (and (and (and (and (and (and (and (and (and (and (and (and (and (and (and (and (and (and (and (and (and (and (and (and (and (and (and (and (and (and (and (and (and (and (and (and (and (and (and (and (and (and (and (and (and (and (and (and (and (and (and (and (and (and (and (and (and (and (and (and (and (and (and (and (and (and (and (and (and (and (and (and (and (and (and (and (and (and (and (and (and (and (and (and (and (and (and (and (and (and (and (and (and (and (and (and (and (and (and (and (and (and (and (and (and (and (and (and (and (and (and (and (and (and (and (and (and (and (and (and (and (and (and (and (and (and (and (and (and (and (and (and (and (and (and (and (and (and (and (and (and (and (and (and (and (and (and (and (and (and (and (and (and (and (and (and (and (and (and (and (and (and (and (and (and (and (and (and (and (and (and (and (and (and (and (and (and (and (and (and (and (and (and (and (and (and (and (and (and (and (and (and (and (and (and (and (and (and (and (and (and (and (and (and (and (and (and (and (and (and (and (and (and (and (and (and (and (and (and (and (and (and (and (and (and (and (and (and (and (and (and (and (and (and (and (and (and (and (and (and (and (and (and (and (and (and (and (and (and (and (and (and (and (and (and (and (and (and (and (and (and (and (and (and (and (and (and (and (and (and (and (and (and (and (and (and (and (and (and (and (and (and (and (and (and (and (and (and (and (and (and (and (and (and (and (and (and (and (and (and (and (and (and (and (and (and (and (and (and (and (and (and (and (and (and (and (and (and (and (and (and (and (and (and (and (and (and (and (and (and (and (and (and (and (and (and (and (and (and (and (and (and (and (and (and (and (and (and (and (and (and (and (and (and (and (and (and (and (and (and (and (and (and (and (and (and (and (and (and (and (and (and (and (and (or (or ?v_18 P20) ?v_43) (or (or ?v_156 ?v_3) ?v_72)) (or (or ?v_12 ?v_0) ?v_9)) (or (or ?v_4 ?v_23) ?v_87)) (or (or ?v_1 ?v_80) ?v_2)) (or (or ?v_88 P5) ?v_58)) (or (or ?v_127 ?v_33) ?v_5)) (or (or P16 ?v_153) ?v_26)) (or (or P6 ?v_7) P10)) (or (or ?v_3 ?v_37) ?v_116)) (or (or ?v_41 ?v_4) ?v_95)) (or (or ?v_45 P24) ?v_5)) (or (or ?v_54 ?v_147) ?v_13)) (or (or ?v_53 ?v_38) P11)) (or (or ?v_14 ?v_8) ?v_71)) (or (or ?v_57 ?v_19) ?v_60)) (or (or ?v_8 ?v_9) ?v_10)) (or (or ?v_67 P3) P10)) (or (or ?v_138 ?v_12) ?v_21)) (or (or ?v_25 ?v_13) ?v_14)) (or (or ?v_122 ?v_28) ?v_47)) (or (or P1 ?v_31) ?v_136)) (or (or ?v_113 ?v_69) ?v_42)) (or (or P20 ?v_17) ?v_44)) (or (or ?v_85 ?v_18) ?v_59)) (or (or ?v_19 P18) ?v_105)) (or (or ?v_93 P15) ?v_27)) (or (or ?v_19 ?v_20) ?v_51)) (or (or ?v_52 ?v_10) ?v_99)) (or (or ?v_21 ?v_126) P20)) (or (or ?v_23 P12) ?v_20)) (or (or ?v_146 ?v_74) ?v_25)) (or (or ?v_26 ?v_64) ?v_29)) (or (or P20 ?v_28) ?v_89)) (or (or ?v_29 ?v_97) ?v_78)) (or (or ?v_30 ?v_31) ?v_32)) (or (or ?v_33 ?v_100) ?v_34)) (or (or ?v_35 ?v_36) P5)) (or (or ?v_73 ?v_37) ?v_63)) (or (or ?v_33 ?v_125) ?v_38)) (or (or ?v_34 ?v_55) ?v_109)) (or (or P17 ?v_1) ?v_30)) (or (or ?v_56 ?v_39) ?v_40)) (or (or ?v_121 ?v_41) ?v_46)) (or (or ?v_43 P16) ?v_3)) (or (or ?v_65 ?v_45) ?v_46)) (or (or ?v_17 ?v_68) ?v_47)) (or (or ?v_66 ?v_48) ?v_32)) (or (or P8 ?v_49) ?v_2)) (or (or ?v_50 ?v_51) ?v_62)) (or (or ?v_90 P12) ?v_53)) (or (or P15 P23) ?v_84)) (or (or ?v_55 ?v_56) ?v_57)) (or (or ?v_58 ?v_108) ?v_51)) (or (or ?v_129 P12) ?v_132)) (or (or P14 ?v_61) ?v_62)) (or (or ?v_34 ?v_83) ?v_101)) (or (or P19 ?v_49) ?v_64)) (or (or ?v_29 ?v_81) ?v_65)) (or (or ?v_66 ?v_67) ?v_131)) (or (or ?v_69 ?v_10) P18)) (or (or ?v_70 ?v_31) ?v_68)) (or (or P6 ?v_64) ?v_40)) (or (or ?v_71 ?v_72) P20)) (or (or ?v_4 ?v_37) ?v_27)) (or (or ?v_110 ?v_128) ?v_106)) (or (or ?v_75 ?v_45) P22)) (or (or ?v_74 ?v_150) ?v_130)) (or (or P19 P15) P20)) (or (or ?v_50 ?v_76) ?v_58)) (or (or ?v_27 ?v_77) ?v_70)) (or (or ?v_91 ?v_76) ?v_78)) (or (or ?v_4 P17) ?v_14)) (or (or ?v_103 ?v_14) ?v_102)) (or (or ?v_80 P8) P27)) (or (or ?v_81 ?v_82) P10)) (or (or ?v_75 ?v_83) ?v_94)) (or (or ?v_84 ?v_115) ?v_85)) (or (or P3 ?v_61) ?v_51)) (or (or ?v_86 ?v_87) ?v_9)) (or (or ?v_117 ?v_40) ?v_46)) (or (or ?v_2 ?v_69) P23)) (or (or ?v_35 P12) ?v_34)) (or (or ?v_120 ?v_88) P7)) (or (or ?v_89 ?v_81) ?v_8)) (or (or ?v_86 ?v_19) ?v_31)) (or (or ?v_57 ?v_90) ?v_20)) (or (or ?v_91 ?v_68) ?v_74)) (or (or ?v_92 ?v_93) ?v_104)) (or (or ?v_53 ?v_112) ?v_56)) (or (or ?v_23 ?v_78) ?v_94)) (or (or ?v_49 ?v_107) ?v_95)) (or (or ?v_96 ?v_97) ?v_95)) (or (or ?v_17 ?v_43) ?v_5)) (or (or P16 P5) P14)) (or (or ?v_65 ?v_98) ?v_89)) (or (or ?v_99 ?v_137) ?v_111)) (or (or ?v_69 ?v_33) ?v_56)) (or (or ?v_92 ?v_74) ?v_100)) (or (or ?v_73 ?v_101) ?v_3)) (or (or ?v_13 ?v_65) ?v_55)) (or (or ?v_102 ?v_90) ?v_78)) (or (or ?v_103 ?v_37) ?v_80)) (or (or P3 P1) ?v_40)) (or (or ?v_36 ?v_104) P7)) (or (or ?v_76 ?v_141) ?v_140)) (or (or ?v_38 ?v_118) P12)) (or (or ?v_13 ?v_61) ?v_88)) (or (or ?v_23 ?v_8) P14)) (or (or ?v_28 ?v_65) ?v_30)) (or (or ?v_104 P16) ?v_105)) (or (or ?v_43 ?v_78) ?v_25)) (or (or ?v_106 ?v_107) ?v_108)) (or (or ?v_98 ?v_92) ?v_109)) (or (or ?v_91 ?v_70) ?v_105)) (or (or ?v_110 ?v_19) ?v_72)) (or (or P7 ?v_67) ?v_103)) (or (or ?v_81 ?v_69) P1)) (or (or ?v_45 ?v_111) ?v_112)) (or (or ?v_1 ?v_55) ?v_113)) (or (or ?v_27 ?v_73) ?v_39)) (or (or ?v_44 ?v_114) P10)) (or (or ?v_114 ?v_102) ?v_94)) (or (or P15 ?v_115) ?v_88)) (or (or ?v_116 ?v_99) ?v_43)) (or (or ?v_117 ?v_1) ?v_86)) (or (or ?v_83 ?v_142) ?v_118)) (or (or ?v_124 P29) P21)) (or ?v_145 ?v_119)) (or (or ?v_118 ?v_120) ?v_27)) (or (or ?v_101 ?v_68) ?v_35)) (or (or ?v_121 P14) ?v_69)) (or (or ?v_62 ?v_51) ?v_122)) (or (or ?v_82 ?v_123) ?v_70)) (or (or ?v_3 ?v_40) ?v_112)) (or (or ?v_13 ?v_98) ?v_139)) (or (or ?v_52 ?v_68) ?v_44)) (or (or ?v_116 P2) ?v_124)) (or (or ?v_46 ?v_125) ?v_120)) (or (or ?v_35 ?v_21) ?v_96)) (or (or ?v_81 ?v_43) ?v_54)) (or (or ?v_95 ?v_17) ?v_72)) (or (or ?v_126 P23) ?v_102)) (or (or ?v_102 ?v_81) ?v_0)) (or (or ?v_71 P22) ?v_20)) (or (or ?v_41 P10) P3)) (or (or ?v_51 ?v_103) ?v_127)) (or (or ?v_100 ?v_100) ?v_120)) (or (or ?v_31 ?v_67) ?v_128)) (or (or ?v_91 ?v_85) ?v_114)) (or (or ?v_61 ?v_48) ?v_33)) (or (or ?v_107 ?v_73) ?v_48)) (or (or ?v_129 ?v_48) ?v_12)) (or (or ?v_86 ?v_45) ?v_144)) (or (or ?v_34 ?v_129) P26)) (or (or ?v_0 ?v_131) P28)) (or (or ?v_126 ?v_53) ?v_132)) (or (or P20 ?v_135) ?v_133)) (or (or P15 ?v_92) ?v_57)) (or (or ?v_116 ?v_101) ?v_134)) (or (or ?v_64 ?v_51) P9)) (or (or ?v_129 P13) ?v_90)) (or (or ?v_135 P25) ?v_136)) (or (or ?v_137 ?v_44) ?v_66)) (or (or ?v_30 P22) ?v_9)) (or (or ?v_130 ?v_48) ?v_133)) (or (or ?v_138 ?v_63) ?v_27)) (or (or ?v_37 ?v_82) P22)) (or (or ?v_41 ?v_29) P25)) (or (or ?v_106 P29) ?v_60)) (or (or P2 ?v_58) ?v_139)) (or (or ?v_120 P10) ?v_27)) (or (or ?v_25 P23) ?v_54)) (or (or P16 P28) ?v_114)) (or (or P9 ?v_118) ?v_155)) (or (or ?v_131 ?v_26) ?v_51)) (or (or ?v_5 ?v_91) ?v_140)) (or (or ?v_12 ?v_3) P11)) (or (or ?v_21 ?v_70) ?v_60)) (or (or ?v_148 ?v_86) ?v_104)) (or (or ?v_23 ?v_76) ?v_70)) (or (or P15 ?v_149) ?v_107)) (or (or ?v_72 ?v_88) P2)) (or (or ?v_95 ?v_71) ?v_48)) (or (or P28 ?v_141) ?v_130)) (or (or ?v_120 ?v_27) ?v_154)) (or (or ?v_71 ?v_107) ?v_142)) (or (or ?v_143 ?v_42) ?v_135)) (or (or P16 ?v_39) ?v_42)) (or (or ?v_110 ?v_144) ?v_27)) (or (or ?v_32 P18) ?v_67)) (or (or ?v_82 ?v_83) ?v_48)) (or (or ?v_51 ?v_3) ?v_57)) (or (or P3 ?v_144) ?v_52)) (or (or ?v_39 P10) ?v_59)) (or ?v_145 ?v_109)) (or (or ?v_139 ?v_38) ?v_58)) (or (or ?v_91 ?v_2) ?v_74)) (or (or P22 ?v_0) ?v_128)) (or (or P10 ?v_102) P12)) (or (or ?v_133 ?v_77) ?v_127)) (or (or ?v_36 P24) ?v_130)) (or (or P10 P5) P11)) (or (or ?v_29 ?v_115) ?v_131)) (or (or ?v_130 ?v_46) ?v_138)) (or (or ?v_65 P28) P5)) (or (or ?v_74 P17) ?v_121)) (or ?v_151 ?v_140)) (or (or ?v_157 ?v_119) P22)) (or (or ?v_146 ?v_38) P0)) (or (or ?v_70 P15) ?v_101)) (or (or ?v_121 ?v_130) P20)) (or (or ?v_101 ?v_58) ?v_88)) (or (or ?v_112 P22) ?v_94)) (or (or ?v_101 ?v_109) P26)) (or (or ?v_139 ?v_4) ?v_143)) (or (or ?v_3 P10) P5)) (or (or ?v_18 ?v_34) ?v_142)) (or (or ?v_46 ?v_78) ?v_107)) (or (or ?v_146 ?v_91) ?v_147)) (or (or ?v_19 ?v_121) ?v_109)) (or (or ?v_50 ?v_80) P18)) (or (or ?v_18 P29) ?v_95)) (or (or ?v_48 ?v_129) P28)) (or (or ?v_99 ?v_94) ?v_10)) (or (or ?v_68 ?v_135) ?v_121)) (or (or ?v_99 P10) P29)) (or (or ?v_108 ?v_48) ?v_69)) (or (or ?v_52 ?v_125) ?v_104)) (or (or ?v_52 ?v_85) ?v_113)) (or (or ?v_43 ?v_95) P3)) (or (or ?v_135 ?v_57) ?v_85)) (or (or ?v_111 ?v_101) ?v_40)) (or (or ?v_67 P6) ?v_148)) (or (or P25 ?v_47) ?v_89)) (or (or ?v_14 ?v_45) ?v_30)) (or (or P26 P16) ?v_73)) (or (or ?v_25 ?v_8) ?v_121)) (or (or ?v_66 ?v_54) ?v_3)) (or (or ?v_46 ?v_112) ?v_144)) (or (or ?v_61 P4) ?v_19)) (or (or ?v_72 P19) ?v_20)) (or (or ?v_147 P25) ?v_17)) (or (or ?v_54 ?v_149) P23)) (or (or P25 ?v_50) ?v_34)) (or (or ?v_150 ?v_53) P7)) (or (or ?v_21 ?v_36) ?v_105)) (or (or ?v_36 ?v_51) ?v_119)) (or (or ?v_127 P23) ?v_88)) (or (or P24 ?v_44) ?v_62)) (or (or ?v_129 ?v_143) ?v_73)) (or (or P2 ?v_107) ?v_25)) (or ?v_151 ?v_2)) (or (or ?v_72 ?v_19) ?v_128)) (or (or ?v_86 ?v_150) ?v_9)) (or (or ?v_132 P16) ?v_121)) (or (or ?v_119 ?v_152) ?v_92)) (or (or ?v_49 ?v_105) ?v_98)) (or (or P0 ?v_83) ?v_148)) (or (or ?v_39 ?v_132) P18)) (or (or ?v_56 ?v_133) ?v_140)) (or (or ?v_81 P12) ?v_90)) (or (or ?v_131 ?v_84) ?v_64)) (or (or ?v_9 ?v_102) ?v_142)) (or (or ?v_153 ?v_37) ?v_104)) (or (or ?v_28 ?v_139) ?v_3)) (or (or ?v_106 ?v_12) ?v_85)) (or (or ?v_74 ?v_12) ?v_136)) (or (or ?v_63 ?v_85) ?v_56)) (or (or ?v_154 ?v_155) ?v_50)) (or (or ?v_155 ?v_113) ?v_149)) (or (or ?v_83 ?v_76) ?v_2)) (or (or ?v_125 ?v_27) ?v_110)) (or (or ?v_52 P6) P5)) (or (or ?v_82 ?v_117) ?v_59)) (or (or ?v_87 ?v_49) ?v_34)) (or (or ?v_150 ?v_52) P26)) (or (or ?v_129 ?v_138) P6)) (or (or ?v_21 ?v_37) P1)) (or (or P8 P20) ?v_108)) (or (or ?v_138 P24) ?v_0)) (or (or ?v_149 ?v_2) ?v_86)) (or (or ?v_136 P28) ?v_153)) (or (or ?v_23 ?v_29) ?v_76)) (or (or P5 ?v_105) ?v_10)) (or (or ?v_34 ?v_137) ?v_10)) (or (or ?v_127 P7) ?v_83)) (or (or ?v_152 ?v_119) ?v_89)) (or (or ?v_14 ?v_104) ?v_26)) (or (or ?v_123 ?v_40) ?v_112)) (or (or ?v_70 ?v_105) ?v_64)) (or (or P26 ?v_4) ?v_8)) (or (or ?v_62 P13) ?v_146)) (or (or ?v_115 ?v_39) ?v_90)) (or (or ?v_99 ?v_131) ?v_35)) (or (or ?v_14 P25) ?v_17)) (or (or ?v_130 ?v_51) P8)) (or (or ?v_98 ?v_0) P11)) (or (or P20 ?v_146) ?v_106)) (or (or ?v_39 ?v_65) ?v_93)) (or (or ?v_105 ?v_61) P1)) (or (or ?v_121 P19) ?v_74)) (or (or P18 ?v_130) ?v_78)) (or (or ?v_29 ?v_4) P12)) (or (or ?v_116 ?v_155) P10)) (or (or ?v_36 ?v_99) ?v_155)) (or (or ?v_87 ?v_92) ?v_23)) (or (or ?v_59 P19) ?v_98)) (or (or P14 P25) P29)) (or (or P3 ?v_117) P28)) (or (or ?v_152 ?v_128) P29)) (or (or ?v_148 ?v_37) ?v_7)) (or (or P29 ?v_108) ?v_1)) (or (or ?v_48 ?v_120) ?v_69)) (or (or ?v_90 ?v_141) ?v_84)) (or (or ?v_96 ?v_55) ?v_128)) (or (or ?v_138 ?v_146) P5)) (or (or ?v_55 ?v_73) ?v_18)) (or (or ?v_89 ?v_74) ?v_37)) (or (or ?v_128 ?v_66) P22)) (or (or ?v_52 ?v_119) ?v_72)) (or (or ?v_67 ?v_85) P15)) (or (or ?v_51 ?v_136) ?v_115)) (or (or ?v_153 ?v_29) ?v_64)) (or (or ?v_106 ?v_84) ?v_155)) (or (or ?v_59 ?v_54) ?v_47)) (or (or P9 ?v_59) ?v_34)) (or (or ?v_46 ?v_115) P29)) (or (or (not ?v_102) ?v_74) P12)) (or (or ?v_90 ?v_72) ?v_128)) (or (or P21 P23) P28)) (or (or ?v_70 ?v_123) ?v_69)) (or (or ?v_129 ?v_99) ?v_109)) (or (or P5 ?v_87) ?v_34)) (or (or ?v_70 P1) ?v_5)) (or (or ?v_121 ?v_109) ?v_63)) (or (or ?v_33 ?v_51) ?v_76)) (or (or ?v_57 ?v_60) ?v_80)) (or (or ?v_20 ?v_100) ?v_70)) (or (or ?v_109 ?v_27) P4)) (or (or ?v_30 ?v_116) P0)) (or (or ?v_129 ?v_150) ?v_126)) (or (or ?v_46 P22) P25)) (or (or ?v_155 ?v_91) ?v_1)) (or (or ?v_69 ?v_65) ?v_152)) (or (or ?v_124 ?v_54) ?v_89)) (or (or ?v_37 ?v_156) ?v_98)) (or (or ?v_99 ?v_132) ?v_42)) (or (or ?v_28 ?v_99) ?v_129)) (or (or ?v_104 ?v_104) ?v_109)) (or (or ?v_116 ?v_43) ?v_19)) (or (or ?v_100 ?v_18) ?v_75)) (or (or ?v_87 ?v_149) ?v_128)) (or (or ?v_142 P29) ?v_40)) (or (or ?v_61 ?v_150) ?v_129)) (or (or ?v_53 P17) ?v_134)) (or (or ?v_68 ?v_37) ?v_26)) (or (or P24 ?v_29) ?v_43)) (or (or P29 ?v_14) ?v_104)) (or (or P6 ?v_42) ?v_124)) (or (or ?v_104 ?v_67) ?v_76)) (or (or ?v_115 ?v_63) ?v_37)) (or (or ?v_127 ?v_70) P20)) (or (or ?v_157 ?v_82) ?v_83)) (or (or ?v_130 ?v_49) ?v_148)) (or (or ?v_106 ?v_91) ?v_77)) (or (or ?v_126 ?v_69) ?v_153)) (or (or ?v_89 ?v_29) ?v_95)) (or (or ?v_69 ?v_23) ?v_63)) (or (or ?v_157 ?v_67) ?v_39)) (or (or ?v_94 ?v_43) ?v_111)) (or (or ?v_120 P15) ?v_154)) (or (or P6 ?v_148) ?v_133)) (or (or ?v_110 ?v_74) ?v_121)) (or (or ?v_29 ?v_93) ?v_115)) (or (or ?v_69 ?v_96) ?v_10)) (or (or ?v_149 ?v_111) ?v_34)) (or (or ?v_152 ?v_78) ?v_124)) (or (or ?v_83 ?v_27) P5)) (or (or ?v_130 ?v_136) P25)) (or (or P15 ?v_94) ?v_1)) (or (or ?v_146 P29) ?v_152)) (or (or ?v_101 ?v_102) ?v_48)) (or (or P19 ?v_75) ?v_28)) (or (or ?v_89 ?v_147) ?v_152)) (or (or ?v_132 ?v_70) ?v_155)) (or (or ?v_33 ?v_7) ?v_52)) (or (or ?v_113 ?v_12) P9)) (or (or ?v_66 ?v_55) ?v_107)) (or (or ?v_98 P22) ?v_38)) (or (or ?v_78 ?v_42) ?v_43)) (or (or ?v_57 ?v_64) ?v_32)) (or (or ?v_76 ?v_121) ?v_38)) (or (or ?v_84 ?v_98) P20)) (or (or P5 ?v_54) ?v_105)) (or (or P0 ?v_93) ?v_154)) (or (or ?v_117 ?v_127) P21)) (or (or ?v_53 ?v_64) P13)) (or (or ?v_36 ?v_38) P25)) (or (or ?v_89 ?v_117) P7)) (or (or ?v_27 ?v_27) ?v_126)) (or (or ?v_121 ?v_141) ?v_62)) (or (or ?v_152 ?v_126) ?v_66)) (or (or ?v_155 ?v_36) ?v_29)) (or (or ?v_88 ?v_150) ?v_107)) (or (or ?v_29 ?v_78) ?v_67)) (or (or ?v_17 ?v_57) ?v_67)) (or (or ?v_83 ?v_129) ?v_85)) (or (or P11 ?v_29) P14)) (or (or ?v_121 ?v_113) ?v_20)) (or (or ?v_90 ?v_133) ?v_55)) (or (or ?v_154 ?v_157) ?v_84)) (or (or ?v_82 ?v_74) ?v_87)) (or (or P13 ?v_57) ?v_45)) (or (or ?v_141 ?v_10) ?v_97)) (or (or P16 ?v_99) ?v_87)) (or (or ?v_100 ?v_115) ?v_84)) (or (or ?v_68 ?v_100) ?v_77)) (or (or ?v_139 ?v_87) ?v_38)) (or (or ?v_76 ?v_37) ?v_130)) (or (or ?v_149 ?v_87) ?v_81)) (or (or ?v_92 P16) ?v_104)) (or (or ?v_78 ?v_120) ?v_103)) (or (or ?v_153 P4) ?v_113)) (or (or ?v_88 P3) P19)) (or (or ?v_135 ?v_136) ?v_46)) (or (or ?v_85 ?v_95) ?v_136)) (or (or ?v_84 ?v_21) ?v_74)) (or (or ?v_61 P23) ?v_64)) (or (or ?v_122 ?v_140) ?v_127)) (or (or P12 ?v_5) ?v_114)) (or (or ?v_88 ?v_29) ?v_86)) (or (or ?v_12 ?v_27) ?v_23)) (or (or ?v_94 ?v_76) P12)) (or (or ?v_121 ?v_30) ?v_127)) (or (or ?v_73 ?v_134) ?v_121)) (or (or ?v_93 P23) ?v_127)) (or (or ?v_134 ?v_117) P23)) (or (or ?v_123 ?v_37) ?v_30)) (or (or ?v_39 ?v_128) ?v_69)) (or (or ?v_109 ?v_155) ?v_37)) (or (or ?v_50 ?v_97) ?v_53)) (or (or ?v_68 ?v_60) ?v_71)) (or (or ?v_125 ?v_54) ?v_55)) (or (or ?v_116 ?v_136) ?v_98)) (or (or ?v_110 ?v_29) ?v_49)) (or (or ?v_41 P1) ?v_102)) (or (or ?v_85 ?v_138) ?v_52)) (or (or ?v_25 ?v_37) ?v_30)) (or (or P18 ?v_124) ?v_98)))))))))))))))))))))))))))))
(check-sat)
(exit)
